crystal structure from (V Ti Mo Ni W)S2 with Hexaginal structure     #Header line
1.00000000000000     #Scaling parameter 
14.45000   8.40000   0.00000           #my basis vectors from PRIMVEC
-14.45000   8.40000   0.00000
0.00000   0.00000   30.00000
V W Ti Ni Mo  S    #The Number of per Ion specie 
5 5  5  5  5  50
Direct    #Could be direct or cartesian
   23    0.0000000000    0.0000000000    0.0000000000    #atom positions from PRIMCOORD
   16   -0.9690000000    1.6790000000   -1.3380000000
   16    0.9690000000    1.6790000000    1.3380000000
   22   -2.8900000000    1.6800000000    0.0000000000
   16   -3.8590000000    3.3590000000   -1.3380000000
   16   -1.9210000000    3.3590000000    1.3380000000
   74   -5.7800000000    3.3600000000    0.0000000000
   16   -6.7490000000    5.0390000000   -1.3380000000
   16   -4.8110000000    5.0390000000    1.3380000000
   42   -8.6700000000    5.0400000000    0.0000000000
   16   -9.6390000000    6.7190000000   -1.3380000000
   16   -7.7010000000    6.7190000000    1.3380000000
   74  -11.5600000000    6.7200000000    0.0000000000
   16  -12.5290000000    8.3990000000   -1.3380000000
   16  -10.5910000000    8.3990000000    1.3380000000
   23    2.8900000000    1.6800000000    0.0000000000
   16    1.9210000000    3.3590000000   -1.3380000000
   16    3.8590000000    3.3590000000    1.3380000000
   42    0.0000000000    3.3600000000    0.0000000000
   16   -0.9690000000    5.0390000000   -1.3380000000
   16    0.9690000000    5.0390000000    1.3380000000
   28   -2.8900000000    5.0400000000    0.0000000000
   16   -3.8590000000    6.7190000000   -1.3380000000
   16   -1.9210000000    6.7190000000    1.3380000000
   74   -5.7800000000    6.7200000000    0.0000000000
   16   -6.7490000000    8.3990000000   -1.3380000000
   16   -4.8110000000    8.3990000000    1.3380000000
   23   -8.6700000000    8.4000000000    0.0000000000
   16   -9.6390000000   10.0790000000   -1.3380000000
   16   -7.7010000000   10.0790000000    1.3380000000
   23    5.7800000000    3.3600000000    0.0000000000
   16    4.8110000000    5.0390000000   -1.3380000000
   16    6.7490000000    5.0390000000    1.3380000000
   42    2.8900000000    5.0400000000    0.0000000000
   16    1.9210000000    6.7190000000   -1.3380000000
   16    3.8590000000    6.7190000000    1.3380000000
   74    0.0000000000    6.7200000000    0.0000000000
   16   -0.9690000000    8.3990000000   -1.3380000000
   16    0.9690000000    8.3990000000    1.3380000000
   28   -2.8900000000    8.4000000000    0.0000000000
   16   -3.8590000000   10.0790000000   -1.3380000000
   16   -1.9210000000   10.0790000000    1.3380000000
   22   -5.7800000000   10.0800000000    0.0000000000
   16   -6.7490000000   11.7590000000   -1.3380000000
   16   -4.8110000000   11.7590000000    1.3380000000
   74    8.6700000000    5.0400000000    0.0000000000
   16    7.7010000000    6.7190000000   -1.3380000000
   16    9.6390000000    6.7190000000    1.3380000000
   28    5.7800000000    6.7200000000    0.0000000000
   16    4.8110000000    8.3990000000   -1.3380000000
   16    6.7490000000    8.3990000000    1.3380000000
   42    2.8900000000    8.4000000000    0.0000000000
   16    1.9210000000   10.0790000000   -1.3380000000
   16    3.8590000000   10.0790000000    1.3380000000
   22    0.0000000000   10.0800000000    0.0000000000
   16   -0.9690000000   11.7590000000   -1.3380000000
   16    0.9690000000   11.7590000000    1.3380000000
   28   -2.8900000000   11.7600000000    0.0000000000
   16   -3.8590000000   13.4390000000   -1.3380000000
   16   -1.9210000000   13.4390000000    1.3380000000
   28   11.5600000000    6.7200000000    0.0000000000
   16   10.5910000000    8.3990000000   -1.3380000000
   16   12.5290000000    8.3990000000    1.3380000000
   22    8.6700000000    8.4000000000    0.0000000000
   16    7.7010000000   10.0790000000   -1.3380000000
   16    9.6390000000   10.0790000000    1.3380000000
   42    5.7800000000   10.0800000000    0.0000000000
   16    4.8110000000   11.7590000000   -1.3380000000
   16    6.7490000000   11.7590000000    1.3380000000
   23    2.8900000000   11.7600000000    0.0000000000
   16    1.9210000000   13.4390000000   -1.3380000000
   16    3.8590000000   13.4390000000    1.3380000000
   22    0.0000000000   13.4400000000    0.0000000000
   16   -0.9690000000   15.1190000000   -1.3380000000
   16    0.9690000000   15.1190000000    1.3380000000
